CMD:
./solvers/bin/cadical --plain --no-reduce -t 1600 ./data/cnfs//bobtuttt/bobtuttt.26.cnf

c --- [ banner ] -------------------------------------------------------------
c 
c CaDiCaL SAT Solver
c Copyright (c) 2016-2024
c A. Biere, M. Fleury, N. Froleyks, K. Fazekas, F. Pollitt, T. Faller
c JKU Linz, University of Freiburg, TU Wien
c 
c Version 2.1.3 5296d3d2a9bf48c154ab2acb5e44625776d821bf
c g++ (Gentoo 12.3.1_p20230526 p2) 12.3.1 20230526 -Wall -Wextra -O3 -DNDEBUG
c Sat Aug 9 07:26:21 PDT 2025 Linux cedar2.int.cedar.computecanada.ca 5.14.0-362.24.2.el9_3.x86_64 x86_64
c 
c --- [ limit ] --------------------------------------------------------------
c 
c setting time limit to 1600 seconds real time (due to '-t 1600')
c 
c --- [ parsing input ] ------------------------------------------------------
c 
c reading DIMACS file from './data/cnfs//bobtuttt/bobtuttt.26.cnf'
c opening file to read './data/cnfs//bobtuttt/bobtuttt.26.cnf'
c found 'p cnf 331968 768234' header
c parsed 768234 clauses in 0.13 seconds process time
c 
c --- [ options ] ------------------------------------------------------------
c 
c   --compact=false                (different from default 'true')
c   --decompose=false              (different from default 'true')
c   --deduplicate=false            (different from default 'true')
c   --elim=false                   (different from default 'true')
c   --probe=false                  (different from default 'true')
c   --reduce=false                 (different from default 'true')
c   --subsume=false                (different from default 'true')
c   --ternary=false                (different from default 'true')
c   --transred=false               (different from default 'true')
c   --vivify=false                 (different from default 'true')
c 
c --- [ solving ] ------------------------------------------------------------
c 
c time measured in process time since initialization
c 
c  seconds   reductions  redundant  irredundant
c          MB    restarts       trail       variables
c           level   conflicts       glue          remaining
c 
c *  0.13 135  0 0   0    0    0  0% 0 751037 323156 97%
c {  0.15 136  0 0   0    0    0  0% 0 751037 323156 97%
c i  0.30 139 47 0  38  324  305  9% 3 751037 323051 97%
c i  0.30 139 47 0  38  365  339  8% 3 751037 323039 97%
c }  0.77 141 40 0  91 1000  933 10% 3 751037 323039 97%
c [  0.77 141  0 0  91 1000  933  0% 0 751037 323039 97%
c O  0.78 141 44 0  91 1003  936 19% 7 751037 323039 97%
c ]  1.59 142 93 0  92 3000 2832 26% 13 751037 323039 97%
c {  1.59 142 40 0  92 3000 2832 10% 3 751037 323039 97%
c F  1.61 142 40 0  93 3004 2836 10% 3 751037 323039 97%
c i  2.23 142 43 0 183 3449 3250 11% 3 751037 323035 97%
c i  4.00 142 45 0 422 4584 4305 14% 4 751037 323029 97%
c i  4.21 142 47 0 452 4725 4441 14% 4 751037 323027 97%
c i  4.38 143 46 0 483 4872 4569 14% 4 751037 323021 97%
c #  6.50 143 49 0 685 6005 5599 16% 4 751037 323021 97%
c i  6.62 143 49 0 694 6044 5632 16% 4 751037 323020 97%
c i  6.62 143 49 0 694 6048 5635 16% 4 751037 323019 97%
c i  6.62 143 49 0 694 6054 5639 16% 4 751037 322989 97%
c i  7.97 143 48 0 819 6739 6280 17% 5 751037 322973 97%
c }  8.16 143 47 0 827 7001 6513 17% 5 751037 322973 97%
c 
c  seconds   reductions  redundant   irredundant
c          MB    restarts       trail        variables
c           level   conflicts       glue           remaining
c 
c [  8.16 143 93 0 827 7001 6513 26% 13 751037 322973 97%
c I  8.60 144 102 0 829 10007 9267 32% 15 751037 322973 97%
c ] 14.22 145 94 0 832 15001 13866 27% 13 751037 322973 97%
c { 14.22 145 47 0 832 15001 13866 17% 5 751037 322973 97%
c B 14.27 145 47 0 833 15008 13872 17% 5 751037 322973 97%
c i 15.23 146 47 0 949 15444 14279 18% 5 751037 322963 97%
c i 19.94 146 45 0 1350 17931 16569 19% 5 751037 322954 97%
c i 22.82 147 45 0 1623 19863 18301 19% 6 751037 322949 97%
c i 23.74 147 44 0 1698 20245 18658 19% 6 751037 322936 97%
c W 25.56 147 45 0 1804 21012 19229 19% 6 737334 322936 97%
c F 34.03 147 44 0 2470 28013 25494 20% 6 737334 322936 97%
c i 35.47 148 44 0 2577 29160 26571 20% 6 737334 322852 97%
c i 36.16 148 44 0 2651 29555 26943 20% 6 737334 322844 97%
c } 38.15 148 45 0 2829 31005 28303 20% 6 737334 322844 97%
c [ 38.15 148 94 0 2829 31005 28303 27% 13 737334 322844 97%
c B 41.39 149 73 0 2832 36014 32845 23% 12 737334 322844 97%
c W 56.40 181 56 0 2836 45015 40654 23% 11 736988 322844 97%
c i 57.49 181 55 0 2836 45905 41291 22% 11 736988 322765 97%
c i 62.06 181 51 0 2837 48996 43937 22% 11 736988 321619 97%
c i 62.08 181 51 0 2837 49056 43984 22% 11 736988 321600 97%
c 
c  seconds   reductions     redundant   irredundant
c          MB    restarts          trail        variables
c           level     conflicts        glue           remaining
c 
c i 62.11 181 51 0 2837 49097 44007 22% 11 736988 320336 96%
c ] 62.11 181 51 0 2837 49105 44004 22% 11 736988 317907 96%
c 0 62.11 181 51 0 2837 49105 44004 22% 11 736988 317907 96%
c 
c --- [ result ] -------------------------------------------------------------
c 
s UNSATISFIABLE
c 
c --- [ run-time profiling ] -------------------------------------------------
c 
c process time taken by individual solving procedures
c (percentage relative to process time for solving)
c 
c        61.98  100.00% search
c        30.77   49.65% unstable
c        30.47   49.16% stable
c         0.72    1.16% walk
c         0.13    0.21% parse
c         0.02    0.03% lucky
c         0.00    0.00% simplify
c   =================================
c        61.98   99.79% solve
c 
c last line shows process time for solving
c (percentage relative to total process time)
c 
c --- [ statistics ] ---------------------------------------------------------
c 
c chronological:             20369        41.48 %  of conflicts
c conflicts:                 49105       792.32    per second
c decisions:                253720      4093.81    per second
c fixed:                     14061         4.24 %  of all variables
c learned:                   47261        96.24 %  per conflict
c learned_lits:            2309978       100.00 %  learned literals
c minimized:                     0         0.00 %  learned literals
c shrunken:                 619585        26.82 %  learned literals
c minishrunken:             501195        21.70 %  learned literals
c otfs:                        137         0.28 %  of conflict
c propagations:          545686913         8.80 M  per second
c rephased:                      9      5456.11    interval
c restarts:                   2837        17.31    interval
c stabilizing:                   3        57.22 %  of conflicts
c subsumed:                   3055         0.38 %  of all clauses
c strengthened:                134         0.02 %  of all clauses
c walked:                        2     24552.50    interval
c 
c seconds are measured in process time for solving
c 
c --- [ resources ] ----------------------------------------------------------
c 
c total process time since initialization:        62.11    seconds
c total real time since initialization:           62.51    seconds
c maximum resident set size of process:          179.38    MB
c 
c --- [ shutting down ] ------------------------------------------------------
c 
c exit 20
